82
26
0 26 27 28 29 31 33 34 38 39 42 47 49 53 56 57 59 61 64 66 67 68 69 71 78 79
1 26 27 28 29 32 35 36 39 44 48 51 52 55 57 60 64 69 71 73 74 76 80
2 27 28 32 34 35 37 38 39 41 42 43 44 47 48 50 51 57 59 60 63 64 65 66 69 72 78 80 81
3 27 28 29 35 37 41 45 48 50 51 56 57 58 59 60 63 64 66 67 68 69 70 73 76 78 80
4 27 29 35 38 39 41 44 45 47 48 50 51 52 56 57 60 63 64 68 69 70 71 76 78 79 80
5 26 27 28 29 31 32 33 34 36 37 38 39 41 42 43 47 51 56 57 59 62 64 66 68 69 73 78
6 26 27 28 29 31 34 35 38 39 42 47 48 50 56 57 59 61 64 66 68 69 72 76 78 79 80
7 26 27 28 29 32 35 38 39 40 42 47 49 51 59 61 63 64 69 72 74 78 79 80 81
8 26 27 28 29 36 37 38 39 41 42 43 46 47 50 51 57 59 60 63 68 69 73 74 76 77 78
9 28 33 34 35 37 38 39 41 42 43 45 47 48 50 57 60 61 63 64 65 66 69 76
10 26 27 28 29 32 35 37 38 39 41 43 45 47 60 61 62 63 65 67 68 69 73 74 80 81
11 27 29 32 33 34 35 37 40 43 45 47 48 50 51 53 55 60 61 66 72 78 79 80
12 26 28 29 32 34 35 38 43 44 47 48 51 58 59 61 63 64 69 72 75
13 26 28 30 35 39 42 43 47 48 51 54 55 61 63 67 72 73 77 78 79 80
14 26 28 31 32 35 37 43 45 48 50 51 56 63 64 65 67 68 69 70 71 75 79
15 29 39 42 43 45 55 57 58 66 67 75 77 79 80
16 28 29 31 40 41 42 45 49 60 64 66 67 68 71 72 74 81
17 29 31 33 34 38 42 43 47 49 52 56 60 67 71 73
18 31 33 34 41 46 51 52 56 64 65 71 78
19 37 43 47 48 54 72 76
20 27 30 35 36 37 39 41 42 46 47 49 50 61 66 76 77 79
21 34 35 37 44 46 49 58 64 68 76 80 81
22 27 32 40 53 58 59 65 75
23 57 68 78
24 42 69 71 72
25 36 64
